RST07
Position Depot: Random
Horizon for Depot: Small
Position of customers: Random
Distribution of the demand: Large
Width of time windows: Tight
Distribution of the service: Large

VEHICLE 
NUMBER 	 CAPACITY 
 6 	 	 714 
 
CUSTOMER
CUST NO. 	 XCOORD.  	 YCOORD. 	 DEMAND 	 READY TIME 	 DUE DATE 	 SERVICE TIME 
 0 	 	 769 	 	 830 	 	 0 	 	 0 	 	 1914 	 	 0 
  1 	 	 417 	 	 510 	 	 60 	 	 1407 	 	 1510 	 	 125 
  2 	 	 111 	 	 46 	 	 69 	 	 952 	 	 1125 	 	 132 
  3 	 	 610 	 	 241 	 	 68 	 	 1366 	 	 1554 	 	 110 
  4 	 	 394 	 	 547 	 	 66 	 	 656 	 	 731 	 	 170 
  5 	 	 236 	 	 402 	 	 38 	 	 1666 	 	 1804 	 	 154 
  6 	 	 14 	 	 694 	 	 6 	 	 763 	 	 843 	 	 142 
  7 	 	 521 	 	 131 	 	 44 	 	 615 	 	 815 	 	 112 
  8 	 	 381 	 	 331 	 	 74 	 	 908 	 	 1029 	 	 199 
  9 	 	 865 	 	 653 	 	 99 	 	 470 	 	 565 	 	 161 
  10 	 	 954 	 	 915 	 	 40 	 	 349 	 	 399 	 	 126 
  11 	 	 706 	 	 172 	 	 88 	 	 606 	 	 727 	 	 180 
  12 	 	 934 	 	 497 	 	 13 	 	 1599 	 	 1796 	 	 163 
  13 	 	 286 	 	 158 	 	 24 	 	 846 	 	 910 	 	 177 
  14 	 	 986 	 	 34 	 	 64 	 	 762 	 	 907 	 	 128 
  15 	 	 570 	 	 217 	 	 4 	 	 1050 	 	 1238 	 	 168 
  16 	 	 282 	 	 605 	 	 89 	 	 416 	 	 590 	 	 174 
  17 	 	 547 	 	 43 	 	 14 	 	 767 	 	 899 	 	 157 
  18 	 	 487 	 	 246 	 	 55 	 	 658 	 	 713 	 	 116 
  19 	 	 731 	 	 821 	 	 25 	 	 269 	 	 388 	 	 102 
  20 	 	 963 	 	 383 	 	 59 	 	 518 	 	 643 	 	 183 
  21 	 	 382 	 	 148 	 	 64 	 	 1496 	 	 1629 	 	 156 
  22 	 	 770 	 	 356 	 	 1 	 	 1497 	 	 1594 	 	 105 
  23 	 	 532 	 	 675 	 	 14 	 	 845 	 	 933 	 	 153 
  24 	 	 333 	 	 901 	 	 37 	 	 1213 	 	 1407 	 	 121 
  25 	 	 163 	 	 496 	 	 98 	 	 832 	 	 895 	 	 123 
  26 	 	 652 	 	 889 	 	 17 	 	 695 	 	 773 	 	 150 
  27 	 	 431 	 	 959 	 	 37 	 	 1117 	 	 1253 	 	 122 
  28 	 	 404 	 	 272 	 	 61 	 	 779 	 	 887 	 	 128 
  29 	 	 402 	 	 592 	 	 32 	 	 414 	 	 481 	 	 176 
  30 	 	 358 	 	 633 	 	 54 	 	 1692 	 	 1868 	 	 124 
  31 	 	 796 	 	 572 	 	 40 	 	 1257 	 	 1451 	 	 187 
  32 	 	 239 	 	 530 	 	 67 	 	 1556 	 	 1697 	 	 111 
  33 	 	 192 	 	 34 	 	 17 	 	 990 	 	 1081 	 	 173 
  34 	 	 603 	 	 908 	 	 64 	 	 906 	 	 982 	 	 157 
  35 	 	 180 	 	 225 	 	 100 	 	 1722 	 	 1914 	 	 140 
  36 	 	 638 	 	 551 	 	 88 	 	 1486 	 	 1669 	 	 124 
  37 	 	 120 	 	 697 	 	 37 	 	 965 	 	 1075 	 	 199 
  38 	 	 936 	 	 803 	 	 2 	 	 533 	 	 664 	 	 183 
  39 	 	 305 	 	 849 	 	 25 	 	 339 	 	 510 	 	 144 
  40 	 	 799 	 	 224 	 	 58 	 	 495 	 	 667 	 	 152 
  41 	 	 798 	 	 871 	 	 56 	 	 1697 	 	 1764 	 	 154 
  42 	 	 44 	 	 580 	 	 79 	 	 1714 	 	 1796 	 	 195 
  43 	 	 509 	 	 121 	 	 39 	 	 688 	 	 830 	 	 155 
  44 	 	 426 	 	 296 	 	 52 	 	 1365 	 	 1542 	 	 163 
  45 	 	 730 	 	 880 	 	 19 	 	 470 	 	 608 	 	 150 
  46 	 	 46 	 	 309 	 	 19 	 	 852 	 	 980 	 	 121 
  47 	 	 35 	 	 786 	 	 85 	 	 744 	 	 814 	 	 171 
  48 	 	 596 	 	 268 	 	 66 	 	 1818 	 	 1914 	 	 155 
  49 	 	 411 	 	 55 	 	 77 	 	 1057 	 	 1221 	 	 122 
  50 	 	 464 	 	 533 	 	 63 	 	 340 	 	 468 	 	 200 
  51 	 	 494 	 	 959 	 	 16 	 	 1180 	 	 1251 	 	 181 
  52 	 	 393 	 	 727 	 	 11 	 	 824 	 	 969 	 	 128 
  53 	 	 430 	 	 331 	 	 11 	 	 1290 	 	 1436 	 	 144 
  54 	 	 716 	 	 523 	 	 11 	 	 1024 	 	 1087 	 	 128 
  55 	 	 441 	 	 77 	 	 72 	 	 806 	 	 903 	 	 126 
  56 	 	 944 	 	 423 	 	 14 	 	 741 	 	 846 	 	 126 
  57 	 	 858 	 	 443 	 	 69 	 	 840 	 	 1025 	 	 142 
  58 	 	 244 	 	 365 	 	 6 	 	 1410 	 	 1579 	 	 170 
  59 	 	 866 	 	 32 	 	 37 	 	 1518 	 	 1686 	 	 170 
  60 	 	 694 	 	 851 	 	 25 	 	 1597 	 	 1728 	 	 197 
  61 	 	 737 	 	 573 	 	 36 	 	 608 	 	 663 	 	 143 
  62 	 	 361 	 	 512 	 	 91 	 	 577 	 	 754 	 	 128 
  63 	 	 877 	 	 330 	 	 27 	 	 513 	 	 647 	 	 175 
  64 	 	 384 	 	 488 	 	 21 	 	 393 	 	 568 	 	 173 
  65 	 	 423 	 	 576 	 	 42 	 	 948 	 	 1080 	 	 107 
  66 	 	 154 	 	 945 	 	 59 	 	 759 	 	 949 	 	 107 
  67 	 	 584 	 	 958 	 	 18 	 	 626 	 	 786 	 	 189 
  68 	 	 270 	 	 731 	 	 87 	 	 1603 	 	 1709 	 	 103 
  69 	 	 812 	 	 440 	 	 24 	 	 1228 	 	 1324 	 	 130 
  70 	 	 510 	 	 750 	 	 28 	 	 1257 	 	 1341 	 	 170 
  71 	 	 933 	 	 738 	 	 22 	 	 1245 	 	 1421 	 	 118 
  72 	 	 19 	 	 793 	 	 75 	 	 654 	 	 826 	 	 118 
  73 	 	 193 	 	 775 	 	 56 	 	 470 	 	 636 	 	 183 
  74 	 	 818 	 	 154 	 	 89 	 	 599 	 	 745 	 	 131 
  75 	 	 133 	 	 777 	 	 19 	 	 527 	 	 702 	 	 186 
  76 	 	 903 	 	 275 	 	 90 	 	 1163 	 	 1336 	 	 167 
  77 	 	 822 	 	 505 	 	 20 	 	 811 	 	 1004 	 	 181 
  78 	 	 66 	 	 883 	 	 18 	 	 1376 	 	 1511 	 	 174 
  79 	 	 31 	 	 92 	 	 78 	 	 1001 	 	 1148 	 	 173 
  80 	 	 3 	 	 536 	 	 48 	 	 1413 	 	 1541 	 	 177 
  81 	 	 336 	 	 653 	 	 71 	 	 419 	 	 514 	 	 128 
  82 	 	 144 	 	 698 	 	 58 	 	 592 	 	 702 	 	 156 
  83 	 	 374 	 	 73 	 	 7 	 	 887 	 	 939 	 	 129 
  84 	 	 633 	 	 364 	 	 16 	 	 1417 	 	 1581 	 	 197 
  85 	 	 538 	 	 397 	 	 40 	 	 886 	 	 1055 	 	 119 
  86 	 	 365 	 	 867 	 	 27 	 	 1620 	 	 1685 	 	 121 
  87 	 	 404 	 	 727 	 	 49 	 	 776 	 	 854 	 	 145 
  88 	 	 393 	 	 918 	 	 18 	 	 1024 	 	 1074 	 	 159 
  89 	 	 586 	 	 123 	 	 55 	 	 1794 	 	 1908 	 	 104 
  90 	 	 389 	 	 429 	 	 37 	 	 449 	 	 607 	 	 147 
  91 	 	 274 	 	 28 	 	 34 	 	 1016 	 	 1112 	 	 187 
  92 	 	 785 	 	 51 	 	 28 	 	 1433 	 	 1575 	 	 102 
  93 	 	 87 	 	 434 	 	 38 	 	 817 	 	 867 	 	 131 
  94 	 	 746 	 	 725 	 	 58 	 	 163 	 	 295 	 	 142 
  95 	 	 597 	 	 514 	 	 68 	 	 348 	 	 413 	 	 184 
  96 	 	 565 	 	 319 	 	 32 	 	 1032 	 	 1158 	 	 194 
  97 	 	 190 	 	 788 	 	 36 	 	 1150 	 	 1334 	 	 170 
  98 	 	 751 	 	 862 	 	 45 	 	 1740 	 	 1844 	 	 124 
  99 	 	 31 	 	 374 	 	 3 	 	 771 	 	 954 	 	 181 
  100 	 	 919 	 	 625 	 	 54 	 	 373 	 	 521 	 	 133 
 